p tw 40 84
0 1
0 22
0 3
0 13
0 11
0 15
0 2
1 24
1 2
2 3
2 15
2 29
2 35
2 37
2 10
3 12
3 31
3 17
4 5
4 6
4 30
4 22
4 10
6 9
6 22
6 33
6 23
7 8
7 9
7 39
9 33
10 11
10 37
10 17
10 35
11 21
12 32
12 31
13 14
13 19
13 21
13 38
14 17
14 30
14 38
15 16
15 26
15 27
15 38
15 30
16 21
16 18
16 34
16 19
16 30
16 39
16 35
17 19
17 34
18 19
18 20
18 23
18 22
19 31
19 29
19 21
20 35
20 34
21 32
22 27
23 24
23 29
24 25
25 28
25 34
29 31
30 34
30 31
30 37
30 36
31 34
33 34
33 36
35 36
